clingo version 5.5.2
Reading from ...nt/beegfs/home/jubruns/encoding/mif.lp ...
Solving...
Answer: 1
move(1,(13,2),(12,2),1) move(1,(12,2),(11,2),2) move(1,(11,2),(10,2),3) move(1,(10,2),(10,3),4) move(1,(10,3),(10,4),5) move(1,(10,4),(10,5),6) move(1,(10,5),(10,6),7) move(1,(10,6),(10,7),8) move(1,(10,7),(10,8),9) move(1,(10,8),(10,9),10) move(1,(10,9),(10,10),11) move(2,(11,15),(10,15),3) move(2,(10,15),(10,14),4) move(2,(10,14),(10,13),5) move(2,(10,13),(10,14),7) move(2,(10,14),(10,13),8) move(2,(10,13),(10,12),9) move(2,(10,12),(10,11),10) move(2,(10,11),(11,11),11) move(3,(6,11),(7,11),1) move(3,(7,11),(8,11),2) move(3,(8,11),(9,11),3) move(3,(9,11),(10,11),4) move(3,(10,11),(10,10),5) move(3,(10,10),(10,9),6) move(3,(10,9),(10,8),7) move(3,(10,8),(11,8),8) move(3,(11,8),(12,8),9) move(3,(12,8),(13,8),10) move(3,(13,8),(12,8),11)
SATISFIABLE

Models       : 1+
Calls        : 1
Time         : 0.286s (Solving: 0.01s 1st Model: 0.01s Unsat: 0.00s)
CPU Time     : 0.240s

Choices      : 34       (Domain: 32)
Conflicts    : 6        (Analyzed: 6)
Restarts     : 0       
Model-Level  : 14.0    
Problems     : 1        (Average Length: 0.00 Splits: 0)
Lemmas       : 6        (Deleted: 0)
  Binary     : 3        (Ratio:  50.00%)
  Ternary    : 0        (Ratio:   0.00%)
  Conflict   : 6        (Average Length:    1.5 Ratio: 100.00%) 
  Loop       : 0        (Average Length:    0.0 Ratio:   0.00%) 
  Other      : 0        (Average Length:    0.0 Ratio:   0.00%) 
Backjumps    : 6        (Average:  3.33 Max:   8 Sum:     20)
  Executed   : 6        (Average:  3.33 Max:   8 Sum:     20 Ratio: 100.00%)
  Bounded    : 0        (Average:  0.00 Max:   0 Sum:      0 Ratio:   0.00%)

Rules        : 100875   (Original: 72136)
  Choice     : 33      
  Heuristic  : 3472     (Original: 3500)
Atoms        : 54211    (Original: 40745 Auxiliary: 13466)
Disjunctions : 0        (Original: 1)
Bodies       : 54321    (Original: 39056)
  Count      : 27       (Original: 132)
Equivalences : 30028    (Atom=Atom: 41 Body=Body: 45 Other: 29942)
Tight        : Yes
Variables    : 58318    (Eliminated:    0 Frozen: 22896)
Constraints  : 129414   (Binary:  83.3% Ternary:   8.7% Other:   8.0%)

